c File: data_files/evolved_graphs/g7452.col
c
c Auto generated graph
c
p edge 100 60
e 1 4
e 1 28
e 1 29
e 1 30
e 1 31
e 1 32
e 1 33
e 1 38
e 1 39
e 1 40
e 1 41
e 1 42
e 1 43
e 1 44
e 1 45
e 1 46
e 1 47
e 1 48
e 2 4
e 2 28
e 2 29
e 2 30
e 2 31
e 2 32
e 2 33
e 2 38
e 2 39
e 2 40
e 2 41
e 2 42
e 2 43
e 2 44
e 2 45
e 2 46
e 2 47
e 2 48
e 3 4
e 3 28
e 3 29
e 3 30
e 3 31
e 3 32
e 3 33
e 3 38
e 3 39
e 3 40
e 3 41
e 3 42
e 3 43
e 3 44
e 3 45
e 3 46
e 3 47
e 3 48
e 4 43
e 4 44
e 4 45
e 4 46
e 4 47
e 4 48
